(set-info :source |printed by MathSAT|)
(declare-fun call__main_.call_hypothese.ok () Bool)
(declare-fun call__main_.nB1.next () Int)
(declare-fun call__main_.call_hypothese2.ite.next () Bool)
(declare-fun call__main_._H0_.next () Bool)
(declare-fun call__main_.call_controleur2.flby2 () Bool)
(declare-fun call__main_.call_controleur.retard () Bool)
(declare-fun flby.next () Bool)
(declare-fun call__main_.nB1 () Int)
(declare-fun retard1.next () Bool)
(declare-fun call__main_.flby3.next () Int)
(declare-fun call__main_.call_hypothese2.ite4.next () Int)
(declare-fun call__main_.call_hypothese.ite3.next () Int)
(declare-fun call_Sofar.flby () Bool)
(declare-fun nB1 () Int)
(declare-fun call__main_.call_hypothese2.c.next () Int)
(declare-fun call_Sofar.Sofar () Bool)
(declare-fun flby () Bool)
(declare-fun nB1.next () Int)
(declare-fun call__main_.call_hypothese.ite.next () Bool)
(declare-fun retard0.next () Bool)
(declare-fun call__main_.nB0 () Int)
(declare-fun diff1 () Int)
(declare-fun retard1 () Bool)
(declare-fun param__B1_.next () Bool)
(declare-fun ast.next () Bool)
(declare-fun call__main_.call_controleur2.flby.next () Bool)
(declare-fun call__main_.call_controleur2.ite2.next () Bool)
(declare-fun call__main_.diff0.next () Int)
(declare-fun call__main_.call_hypothese2.flby () Bool)
(declare-fun call__main_.call_hypothese2.flby2.next () Int)
(declare-fun call__main_.flby2 () Int)
(declare-fun call__main_.retard1.next () Bool)
(declare-fun call__main_.ast () Bool)
(declare-fun call__main_.flby.next () Int)
(declare-fun param__B0_.next () Bool)
(declare-fun call__main_.call_hypothese2.ok () Bool)
(declare-fun call__main_.call_hypothese2.flby2 () Int)
(declare-fun call__main_._H0_ () Bool)
(declare-fun nS.next () Int)
(declare-fun call__main_.call_hypothese.ite4.next () Int)
(declare-fun call__main_.retard0 () Bool)
(declare-fun call__main_.call_hypothese.flby.next () Bool)
(declare-fun call__main_.diff1 () Int)
(declare-fun call__main_.retard1 () Bool)
(declare-fun call__main_.call_controleur.ite.next () Bool)
(declare-fun diff1.next () Int)
(declare-fun call__main_.call_controleur2.flby () Bool)
(declare-fun call__main_.call_hypothese2.ite3.next () Int)
(declare-fun call__main_.call_hypothese.c.next () Int)
(declare-fun call__main_.call_hypothese2.c () Int)
(declare-fun call__main_.ast.next () Bool)
(declare-fun call__main_.flby3 () Int)
(declare-fun call__main_.call_controleur.retard.next () Bool)
(declare-fun call__main_.nS () Int)
(declare-fun param__S_.next () Bool)
(declare-fun call_Sofar.flby.next () Bool)
(declare-fun avance1 () Bool)
(declare-fun call__main_.retard0.next () Bool)
(declare-fun avance0.next () Bool)
(declare-fun call__main_.call_controleur.diff () Int)
(declare-fun call__main_.nS.next () Int)
(declare-fun call__main_.ite.next () Int)
(declare-fun call__main_.call_hypothese.ok.next () Bool)
(declare-fun avance0 () Bool)
(declare-fun call__main_.call_controleur2.ite.next () Bool)
(declare-fun call__main_._H1_ () Bool)
(declare-fun call__main_.call_controleur.ite2.next () Bool)
(declare-fun call__main_.call_hypothese.c () Int)
(declare-fun retard0 () Bool)
(declare-fun call__main_._H1_.next () Bool)
(declare-fun call__main_.call_controleur.diff.next () Int)
(declare-fun call__main_.call_hypothese2.flby.next () Bool)
(declare-fun call__main_.call_controleur2.flby2.next () Bool)
(declare-fun call__main_.avance1 () Bool)
(declare-fun diff0.next () Int)
(declare-fun call__main_.call_hypothese.flby2.next () Int)
(declare-fun call__main_.avance0 () Bool)
(declare-fun _OK_ () Bool)
(declare-fun call__main_.call_controleur.flby.next () Bool)
(declare-fun nS () Int)
(declare-fun ast () Bool)
(declare-fun call__main_.avance0.next () Bool)
(declare-fun call__main_.call_controleur2.avance () Bool)
(declare-fun call__main_.call_hypothese.flby () Bool)
(declare-fun nB0.next () Int)
(declare-fun _OK_.next () Bool)
(declare-fun diff0 () Int)
(declare-fun call__main_.call_controleur.flby2.next () Bool)
(declare-fun call__main_.call_controleur.avance.next () Bool)
(declare-fun call__main_.call_controleur.avance () Bool)
(declare-fun call__main_.call_controleur2.diff.next () Int)
(declare-fun call__main_.call_controleur.flby () Bool)
(declare-fun call__main_.flby2.next () Int)
(declare-fun call_Sofar.Sofar.next () Bool)
(declare-fun call__main_.nB0.next () Int)
(declare-fun call__main_.call_controleur2.retard () Bool)
(declare-fun call__main_.ite3.next () Int)
(declare-fun call__main_.call_hypothese2.ite2.next () Bool)
(declare-fun call__main_.call_controleur2.diff () Int)
(declare-fun call__main_.flby () Int)
(declare-fun call__main_.call_controleur.flby2 () Bool)
(declare-fun call__main_.call_hypothese2.ok.next () Bool)
(declare-fun call__main_.call_controleur2.avance.next () Bool)
(declare-fun avance1.next () Bool)
(declare-fun call__main_.diff1.next () Int)
(declare-fun call__main_.ite2.next () Int)
(declare-fun call__main_.call_hypothese.ite2.next () Bool)
(declare-fun call__main_.diff0 () Int)
(declare-fun call__main_.call_hypothese.flby2 () Int)
(declare-fun call__main_.call_controleur2.retard.next () Bool)
(declare-fun call__main_.avance1.next () Bool)
(declare-fun nB0 () Int)
(define-fun .def_932 () Bool (= call_Sofar.flby.next call_Sofar.Sofar.next))
(define-fun .def_929 () Bool (= call__main_.call_controleur2.flby2.next call__main_.call_controleur2.retard.next))
(define-fun .def_927 () Bool (= call__main_.call_controleur2.flby.next call__main_.call_controleur2.avance.next))
(define-fun .def_920 () Int (* (- 1) call__main_.nB1.next))
(define-fun .def_923 () Int (+ .def_920 call__main_.nS.next))
(define-fun .def_924 () Int (+ call__main_.call_controleur2.diff.next .def_923))
(define-fun .def_925 () Bool (= .def_924 0))
(define-fun .def_918 () Bool (= call__main_.call_controleur.flby2.next call__main_.call_controleur.retard.next))
(define-fun .def_916 () Bool (= call__main_.call_controleur.flby.next call__main_.call_controleur.avance.next))
(define-fun .def_909 () Int (* (- 1) call__main_.nB0.next))
(define-fun .def_912 () Int (+ .def_909 call__main_.nS.next))
(define-fun .def_913 () Int (+ call__main_.call_controleur.diff.next .def_912))
(define-fun .def_914 () Bool (= .def_913 0))
(define-fun .def_907 () Bool (= call__main_.call_hypothese2.flby2.next call__main_.call_hypothese2.c.next))
(define-fun .def_904 () Bool (= call__main_.call_hypothese2.flby.next call__main_.call_hypothese2.ok.next))
(define-fun .def_902 () Bool (= call__main_.call_hypothese.flby2.next call__main_.call_hypothese.c.next))
(define-fun .def_899 () Bool (= call__main_.call_hypothese.flby.next call__main_.call_hypothese.ok.next))
(define-fun .def_897 () Bool (= call__main_._H1_.next call__main_.call_hypothese2.ok.next))
(define-fun .def_894 () Bool (= call__main_._H0_.next call__main_.call_hypothese.ok.next))
(define-fun .def_891 () Bool (= call__main_.retard1.next call__main_.call_controleur2.retard.next))
(define-fun .def_888 () Bool (= call__main_.retard0.next call__main_.call_controleur.retard.next))
(define-fun .def_885 () Bool (= call__main_.avance1.next call__main_.call_controleur2.avance.next))
(define-fun .def_882 () Bool (= call__main_.avance0.next call__main_.call_controleur.avance.next))
(define-fun .def_879 () Bool (= call__main_.call_controleur2.diff.next call__main_.diff1.next))
(define-fun .def_877 () Bool (= call__main_.call_controleur.diff.next call__main_.diff0.next))
(define-fun .def_875 () Bool (= call__main_.flby3.next call__main_.nS.next))
(define-fun .def_873 () Bool (= call__main_.flby2.next call__main_.nB1.next))
(define-fun .def_871 () Bool (= call__main_.flby.next call__main_.nB0.next))
(define-fun .def_868 () Bool (and call__main_._H0_.next call__main_._H1_.next))
(define-fun .def_869 () Bool (= call__main_.ast.next .def_868))
(define-fun .def_864 () Bool (= ast.next call__main_.ast.next))
(define-fun .def_861 () Bool (= retard1.next call__main_.retard1.next))
(define-fun .def_857 () Bool (= retard0.next call__main_.retard0.next))
(define-fun .def_853 () Bool (= call__main_.avance1.next avance1.next))
(define-fun .def_850 () Bool (= call__main_.avance0.next avance0.next))
(define-fun .def_847 () Bool (= diff1.next call__main_.diff1.next))
(define-fun .def_843 () Bool (= diff0.next call__main_.diff0.next))
(define-fun .def_839 () Bool (= nS.next call__main_.nS.next))
(define-fun .def_835 () Bool (= nB1.next call__main_.nB1.next))
(define-fun .def_831 () Bool (= nB0.next call__main_.nB0.next))
(define-fun .def_828 () Bool (= flby.next _OK_.next))
(define-fun .def_832 () Bool (and .def_828 .def_831))
(define-fun .def_836 () Bool (and .def_832 .def_835))
(define-fun .def_840 () Bool (and .def_836 .def_839))
(define-fun .def_844 () Bool (and .def_840 .def_843))
(define-fun .def_848 () Bool (and .def_844 .def_847))
(define-fun .def_851 () Bool (and .def_848 .def_850))
(define-fun .def_854 () Bool (and .def_851 .def_853))
(define-fun .def_858 () Bool (and .def_854 .def_857))
(define-fun .def_862 () Bool (and .def_858 .def_861))
(define-fun .def_865 () Bool (and .def_862 .def_864))
(define-fun .def_870 () Bool (and .def_865 .def_869))
(define-fun .def_872 () Bool (and .def_870 .def_871))
(define-fun .def_874 () Bool (and .def_872 .def_873))
(define-fun .def_876 () Bool (and .def_874 .def_875))
(define-fun .def_878 () Bool (and .def_876 .def_877))
(define-fun .def_880 () Bool (and .def_878 .def_879))
(define-fun .def_883 () Bool (and .def_880 .def_882))
(define-fun .def_886 () Bool (and .def_883 .def_885))
(define-fun .def_889 () Bool (and .def_886 .def_888))
(define-fun .def_892 () Bool (and .def_889 .def_891))
(define-fun .def_895 () Bool (and .def_892 .def_894))
(define-fun .def_898 () Bool (and .def_895 .def_897))
(define-fun .def_900 () Bool (and .def_898 .def_899))
(define-fun .def_903 () Bool (and .def_900 .def_902))
(define-fun .def_905 () Bool (and .def_903 .def_904))
(define-fun .def_908 () Bool (and .def_905 .def_907))
(define-fun .def_915 () Bool (and .def_908 .def_914))
(define-fun .def_917 () Bool (and .def_915 .def_916))
(define-fun .def_919 () Bool (and .def_917 .def_918))
(define-fun .def_926 () Bool (and .def_919 .def_925))
(define-fun .def_928 () Bool (and .def_926 .def_927))
(define-fun .def_930 () Bool (and .def_928 .def_929))
(define-fun .def_933 () Bool (and .def_930 .def_932))
(define-fun .def_628 () Bool (= call_Sofar.flby call_Sofar.Sofar))
(define-fun .def_625 () Bool (= call__main_.call_controleur2.flby2 call__main_.call_controleur2.retard))
(define-fun .def_623 () Bool (= call__main_.call_controleur2.flby call__main_.call_controleur2.avance))
(define-fun .def_618 () Int (* (- 1) call__main_.call_controleur2.diff))
(define-fun .def_606 () Int (* (- 1) call__main_.nS))
(define-fun .def_619 () Int (+ .def_606 .def_618))
(define-fun .def_620 () Int (+ call__main_.nB1 .def_619))
(define-fun .def_621 () Bool (= .def_620 0))
(define-fun .def_613 () Bool (= call__main_.call_controleur.flby2 call__main_.call_controleur.retard))
(define-fun .def_611 () Bool (= call__main_.call_controleur.flby call__main_.call_controleur.avance))
(define-fun .def_605 () Int (* (- 1) call__main_.call_controleur.diff))
(define-fun .def_607 () Int (+ .def_606 .def_605))
(define-fun .def_608 () Int (+ call__main_.nB0 .def_607))
(define-fun .def_609 () Bool (= .def_608 0))
(define-fun .def_600 () Bool (= call__main_.call_hypothese2.flby2 call__main_.call_hypothese2.c))
(define-fun .def_597 () Bool (= call__main_.call_hypothese2.flby call__main_.call_hypothese2.ok))
(define-fun .def_595 () Bool (= call__main_.call_hypothese.flby2 call__main_.call_hypothese.c))
(define-fun .def_592 () Bool (= call__main_.call_hypothese.flby call__main_.call_hypothese.ok))
(define-fun .def_590 () Bool (= call__main_._H1_ call__main_.call_hypothese2.ok))
(define-fun .def_587 () Bool (= call__main_._H0_ call__main_.call_hypothese.ok))
(define-fun .def_584 () Bool (= call__main_.retard1 call__main_.call_controleur2.retard))
(define-fun .def_581 () Bool (= call__main_.retard0 call__main_.call_controleur.retard))
(define-fun .def_578 () Bool (= call__main_.avance1 call__main_.call_controleur2.avance))
(define-fun .def_575 () Bool (= call__main_.avance0 call__main_.call_controleur.avance))
(define-fun .def_572 () Bool (= call__main_.diff1 call__main_.call_controleur2.diff))
(define-fun .def_569 () Bool (= call__main_.diff0 call__main_.call_controleur.diff))
(define-fun .def_566 () Bool (= call__main_.flby3 call__main_.nS))
(define-fun .def_564 () Bool (= call__main_.flby2 call__main_.nB1))
(define-fun .def_562 () Bool (= call__main_.flby call__main_.nB0))
(define-fun .def_559 () Bool (and call__main_._H0_ call__main_._H1_))
(define-fun .def_560 () Bool (= call__main_.ast .def_559))
(define-fun .def_555 () Bool (= ast call__main_.ast))
(define-fun .def_552 () Bool (= retard1 call__main_.retard1))
(define-fun .def_548 () Bool (= retard0 call__main_.retard0))
(define-fun .def_544 () Bool (= avance1 call__main_.avance1))
(define-fun .def_540 () Bool (= avance0 call__main_.avance0))
(define-fun .def_536 () Bool (= diff1 call__main_.diff1))
(define-fun .def_532 () Bool (= diff0 call__main_.diff0))
(define-fun .def_528 () Bool (= nS call__main_.nS))
(define-fun .def_524 () Bool (= nB1 call__main_.nB1))
(define-fun .def_520 () Bool (= nB0 call__main_.nB0))
(define-fun .def_517 () Bool (= flby _OK_))
(define-fun .def_521 () Bool (and .def_517 .def_520))
(define-fun .def_525 () Bool (and .def_521 .def_524))
(define-fun .def_529 () Bool (and .def_525 .def_528))
(define-fun .def_533 () Bool (and .def_529 .def_532))
(define-fun .def_537 () Bool (and .def_533 .def_536))
(define-fun .def_541 () Bool (and .def_537 .def_540))
(define-fun .def_545 () Bool (and .def_541 .def_544))
(define-fun .def_549 () Bool (and .def_545 .def_548))
(define-fun .def_553 () Bool (and .def_549 .def_552))
(define-fun .def_556 () Bool (and .def_553 .def_555))
(define-fun .def_561 () Bool (and .def_556 .def_560))
(define-fun .def_563 () Bool (and .def_561 .def_562))
(define-fun .def_565 () Bool (and .def_563 .def_564))
(define-fun .def_567 () Bool (and .def_565 .def_566))
(define-fun .def_570 () Bool (and .def_567 .def_569))
(define-fun .def_573 () Bool (and .def_570 .def_572))
(define-fun .def_576 () Bool (and .def_573 .def_575))
(define-fun .def_579 () Bool (and .def_576 .def_578))
(define-fun .def_582 () Bool (and .def_579 .def_581))
(define-fun .def_585 () Bool (and .def_582 .def_584))
(define-fun .def_588 () Bool (and .def_585 .def_587))
(define-fun .def_591 () Bool (and .def_588 .def_590))
(define-fun .def_593 () Bool (and .def_591 .def_592))
(define-fun .def_596 () Bool (and .def_593 .def_595))
(define-fun .def_598 () Bool (and .def_596 .def_597))
(define-fun .def_601 () Bool (and .def_598 .def_600))
(define-fun .def_610 () Bool (and .def_601 .def_609))
(define-fun .def_612 () Bool (and .def_610 .def_611))
(define-fun .def_614 () Bool (and .def_612 .def_613))
(define-fun .def_622 () Bool (and .def_614 .def_621))
(define-fun .def_624 () Bool (and .def_622 .def_623))
(define-fun .def_626 () Bool (and .def_624 .def_625))
(define-fun .def_629 () Bool (and .def_626 .def_628))
(define-fun .def_934 () Bool (and .def_629 .def_933))
(define-fun .def_823 () Bool (and call_Sofar.Sofar ast.next))
(define-fun .def_825 () Bool (= .def_823 call_Sofar.flby.next))
(define-fun .def_820 () Bool (= call__main_.call_controleur2.ite2.next call__main_.call_controleur2.flby2.next))
(define-fun .def_817 () Bool (= call__main_.call_controleur2.ite.next call__main_.call_controleur2.flby.next))
(define-fun .def_810 () Bool (<= 0 call__main_.call_controleur2.diff.next))
(define-fun .def_811 () Bool (not .def_810))
(define-fun .def_812 () Bool (= call__main_.call_controleur2.ite2.next .def_811))
(define-fun .def_809 () Bool (not call__main_.call_controleur2.retard))
(define-fun .def_813 () Bool (or .def_809 .def_812))
(define-fun .def_804 () Bool (<= call__main_.call_controleur2.diff.next (- 10)))
(define-fun .def_806 () Bool (= .def_804 call__main_.call_controleur2.ite2.next))
(define-fun .def_807 () Bool (or call__main_.call_controleur2.retard .def_806))
(define-fun .def_800 () Bool (<= 10 call__main_.call_controleur2.diff.next))
(define-fun .def_801 () Bool (= call__main_.call_controleur2.ite.next .def_800))
(define-fun .def_802 () Bool (or call__main_.call_controleur2.avance .def_801))
(define-fun .def_795 () Bool (<= call__main_.call_controleur2.diff.next 0))
(define-fun .def_796 () Bool (not .def_795))
(define-fun .def_798 () Bool (= .def_796 call__main_.call_controleur2.ite.next))
(define-fun .def_793 () Bool (not call__main_.call_controleur2.avance))
(define-fun .def_799 () Bool (or .def_793 .def_798))
(define-fun .def_803 () Bool (and .def_799 .def_802))
(define-fun .def_808 () Bool (and .def_803 .def_807))
(define-fun .def_814 () Bool (and .def_808 .def_813))
(define-fun .def_791 () Bool (= call__main_.call_controleur.ite2.next call__main_.call_controleur.flby2.next))
(define-fun .def_788 () Bool (= call__main_.call_controleur.ite.next call__main_.call_controleur.flby.next))
(define-fun .def_781 () Bool (<= 0 call__main_.call_controleur.diff.next))
(define-fun .def_782 () Bool (not .def_781))
(define-fun .def_783 () Bool (= call__main_.call_controleur.ite2.next .def_782))
(define-fun .def_780 () Bool (not call__main_.call_controleur.retard))
(define-fun .def_784 () Bool (or .def_780 .def_783))
(define-fun .def_775 () Bool (<= call__main_.call_controleur.diff.next (- 10)))
(define-fun .def_777 () Bool (= .def_775 call__main_.call_controleur.ite2.next))
(define-fun .def_778 () Bool (or call__main_.call_controleur.retard .def_777))
(define-fun .def_771 () Bool (<= 10 call__main_.call_controleur.diff.next))
(define-fun .def_772 () Bool (= call__main_.call_controleur.ite.next .def_771))
(define-fun .def_773 () Bool (or call__main_.call_controleur.avance .def_772))
(define-fun .def_766 () Bool (<= call__main_.call_controleur.diff.next 0))
(define-fun .def_767 () Bool (not .def_766))
(define-fun .def_769 () Bool (= .def_767 call__main_.call_controleur.ite.next))
(define-fun .def_764 () Bool (not call__main_.call_controleur.avance))
(define-fun .def_770 () Bool (or .def_764 .def_769))
(define-fun .def_774 () Bool (and .def_770 .def_773))
(define-fun .def_779 () Bool (and .def_774 .def_778))
(define-fun .def_785 () Bool (and .def_779 .def_784))
(define-fun .def_762 () Bool (= call__main_.call_hypothese2.ite4.next call__main_.call_hypothese2.flby2.next))
(define-fun .def_757 () Bool (and call__main_.call_hypothese2.ite2.next call__main_.call_hypothese2.ite.next))
(define-fun .def_759 () Bool (= .def_757 call__main_.call_hypothese2.flby.next))
(define-fun .def_640 () Bool (<= 9 call__main_.call_hypothese2.c))
(define-fun .def_755 () Bool (or call__main_.call_hypothese2.ite2.next .def_640))
(define-fun .def_753 () Bool (= call__main_.call_hypothese.ite4.next call__main_.call_hypothese.flby2.next))
(define-fun .def_748 () Bool (and call__main_.call_hypothese.ite2.next call__main_.call_hypothese.ite.next))
(define-fun .def_750 () Bool (= .def_748 call__main_.call_hypothese.flby.next))
(define-fun .def_665 () Bool (<= 9 call__main_.call_hypothese.c))
(define-fun .def_746 () Bool (or call__main_.call_hypothese.ite2.next .def_665))
(define-fun .def_744 () Bool (= call__main_.ite3.next call__main_.flby3.next))
(define-fun .def_741 () Bool (= call__main_.ite2.next call__main_.flby2.next))
(define-fun .def_738 () Bool (= call__main_.ite.next call__main_.flby.next))
(define-fun .def_735 () Bool (or call__main_.retard1 call__main_.call_hypothese2.ite.next))
(define-fun .def_733 () Bool (or call__main_.retard0 call__main_.call_hypothese.ite.next))
(define-fun .def_726 () Bool (and call__main_.avance1 call__main_.avance1.next))
(define-fun .def_729 () Bool (not .def_726))
(define-fun .def_728 () Bool (= call__main_.call_hypothese2.ite3.next call__main_.call_hypothese2.ite4.next))
(define-fun .def_730 () Bool (or .def_728 .def_729))
(define-fun .def_724 () Bool (= call__main_.call_hypothese2.ite4.next 0))
(define-fun .def_727 () Bool (or .def_724 .def_726))
(define-fun .def_731 () Bool (and .def_727 .def_730))
(define-fun .def_716 () Bool (and call__main_.avance0 call__main_.avance0.next))
(define-fun .def_719 () Bool (not .def_716))
(define-fun .def_718 () Bool (= call__main_.call_hypothese.ite3.next call__main_.call_hypothese.ite4.next))
(define-fun .def_720 () Bool (or .def_718 .def_719))
(define-fun .def_714 () Bool (= call__main_.call_hypothese.ite4.next 0))
(define-fun .def_717 () Bool (or .def_714 .def_716))
(define-fun .def_721 () Bool (and .def_717 .def_720))
(define-fun .def_705 () Int (* (- 1) nB1))
(define-fun .def_706 () Int (+ nB0 .def_705))
(define-fun .def_708 () Bool (<= (- 30) .def_706))
(define-fun .def_707 () Bool (<= .def_706 29))
(define-fun .def_709 () Bool (and .def_707 .def_708))
(define-fun .def_711 () Bool (= .def_709 flby.next))
(define-fun .def_699 () Bool (= call__main_.nS call__main_.ite3.next))
(define-fun .def_700 () Bool (or param__S_.next .def_699))
(define-fun .def_694 () Int (* (- 1) call__main_.ite3.next))
(define-fun .def_695 () Int (+ call__main_.nS .def_694))
(define-fun .def_696 () Bool (= .def_695 (- 1)))
(define-fun .def_683 () Bool (not param__S_.next))
(define-fun .def_697 () Bool (or .def_683 .def_696))
(define-fun .def_690 () Bool (not call__main_.retard0))
(define-fun .def_689 () Bool (= .def_683 call__main_.call_hypothese.ite.next))
(define-fun .def_691 () Bool (or .def_689 .def_690))
(define-fun .def_686 () Bool (not call__main_.retard1))
(define-fun .def_685 () Bool (= .def_683 call__main_.call_hypothese2.ite.next))
(define-fun .def_687 () Bool (or .def_685 .def_686))
(define-fun .def_692 () Bool (and .def_687 .def_691))
(define-fun .def_698 () Bool (and .def_692 .def_697))
(define-fun .def_701 () Bool (and .def_698 .def_700))
(define-fun .def_678 () Bool (= call__main_.nB0 call__main_.ite.next))
(define-fun .def_679 () Bool (or param__B0_.next .def_678))
(define-fun .def_673 () Int (* (- 1) call__main_.ite.next))
(define-fun .def_674 () Int (+ call__main_.nB0 .def_673))
(define-fun .def_675 () Bool (= .def_674 (- 1)))
(define-fun .def_661 () Bool (not param__B0_.next))
(define-fun .def_676 () Bool (or .def_661 .def_675))
(define-fun .def_669 () Bool (= call__main_.call_hypothese.c call__main_.call_hypothese.ite3.next))
(define-fun .def_670 () Bool (or param__B0_.next .def_669))
(define-fun .def_666 () Bool (not .def_665))
(define-fun .def_664 () Bool (= .def_661 call__main_.call_hypothese.ite2.next))
(define-fun .def_667 () Bool (or .def_664 .def_666))
(define-fun .def_657 () Int (* (- 1) call__main_.call_hypothese.ite3.next))
(define-fun .def_658 () Int (+ call__main_.call_hypothese.c .def_657))
(define-fun .def_659 () Bool (= .def_658 (- 2)))
(define-fun .def_662 () Bool (or .def_659 .def_661))
(define-fun .def_668 () Bool (and .def_662 .def_667))
(define-fun .def_671 () Bool (and .def_668 .def_670))
(define-fun .def_677 () Bool (and .def_671 .def_676))
(define-fun .def_680 () Bool (and .def_677 .def_679))
(define-fun .def_653 () Bool (= call__main_.nB1 call__main_.ite2.next))
(define-fun .def_654 () Bool (or param__B1_.next .def_653))
(define-fun .def_648 () Int (* (- 1) call__main_.ite2.next))
(define-fun .def_649 () Int (+ call__main_.nB1 .def_648))
(define-fun .def_650 () Bool (= .def_649 (- 1)))
(define-fun .def_636 () Bool (not param__B1_.next))
(define-fun .def_651 () Bool (or .def_636 .def_650))
(define-fun .def_644 () Bool (= call__main_.call_hypothese2.c call__main_.call_hypothese2.ite3.next))
(define-fun .def_645 () Bool (or param__B1_.next .def_644))
(define-fun .def_641 () Bool (not .def_640))
(define-fun .def_639 () Bool (= .def_636 call__main_.call_hypothese2.ite2.next))
(define-fun .def_642 () Bool (or .def_639 .def_641))
(define-fun .def_632 () Int (* (- 1) call__main_.call_hypothese2.ite3.next))
(define-fun .def_633 () Int (+ call__main_.call_hypothese2.c .def_632))
(define-fun .def_634 () Bool (= .def_633 (- 2)))
(define-fun .def_637 () Bool (or .def_634 .def_636))
(define-fun .def_643 () Bool (and .def_637 .def_642))
(define-fun .def_646 () Bool (and .def_643 .def_645))
(define-fun .def_652 () Bool (and .def_646 .def_651))
(define-fun .def_655 () Bool (and .def_652 .def_654))
(define-fun .def_681 () Bool (and .def_655 .def_680))
(define-fun .def_702 () Bool (and .def_681 .def_701))
(define-fun .def_712 () Bool (and .def_702 .def_711))
(define-fun .def_722 () Bool (and .def_712 .def_721))
(define-fun .def_732 () Bool (and .def_722 .def_731))
(define-fun .def_734 () Bool (and .def_732 .def_733))
(define-fun .def_736 () Bool (and .def_734 .def_735))
(define-fun .def_739 () Bool (and .def_736 .def_738))
(define-fun .def_742 () Bool (and .def_739 .def_741))
(define-fun .def_745 () Bool (and .def_742 .def_744))
(define-fun .def_747 () Bool (and .def_745 .def_746))
(define-fun .def_751 () Bool (and .def_747 .def_750))
(define-fun .def_754 () Bool (and .def_751 .def_753))
(define-fun .def_756 () Bool (and .def_754 .def_755))
(define-fun .def_760 () Bool (and .def_756 .def_759))
(define-fun .def_763 () Bool (and .def_760 .def_762))
(define-fun .def_786 () Bool (and .def_763 .def_785))
(define-fun .def_789 () Bool (and .def_786 .def_788))
(define-fun .def_792 () Bool (and .def_789 .def_791))
(define-fun .def_815 () Bool (and .def_792 .def_814))
(define-fun .def_818 () Bool (and .def_815 .def_817))
(define-fun .def_821 () Bool (and .def_818 .def_820))
(define-fun .def_826 () Bool (and .def_821 .def_825))
(define-fun .def_935 () Bool (and .def_826 .def_934))
(assert .def_935)
